; benchmark generated from python API
(set-info :status unknown)
(declare-fun x_month () Int)
(declare-fun x_day () Int)
(declare-fun x_year () Int)
(declare-fun y_month () Int)
(declare-fun y_day () Int)
(declare-fun y_year () Int)
(assert
 (>= x_month 1))
(assert
 (<= x_month 12))
(assert
 (>= x_day 1))
(assert
 (<= x_day 31))
(assert
 (let (($x858 (<= x_day 28)))
 (let (($x952 (<= x_day 29)))
 (let (($x975 (= (mod x_year 400) 0)))
 (let (($x557 (= (mod x_year 4) 0)))
 (let (($x894 (ite (or (and $x557 (and (distinct (mod x_year 100) 0) true)) $x975) $x952 $x858)))
 (let (($x831 (= x_month 2)))
 (ite $x831 $x894 true))))))))
(assert
 (let (($x866 (<= x_day 30)))
 (let (($x750 (or (= x_month 4) (= x_month 6) (= x_month 9) (= x_month 11))))
 (ite $x750 $x866 true))))
(assert
 (>= y_month 1))
(assert
 (<= y_month 12))
(assert
 (>= y_day 1))
(assert
 (<= y_day 31))
(assert
 (let (($x852 (<= y_day 28)))
 (let (($x607 (<= y_day 29)))
 (let (($x695 (= (mod y_year 400) 0)))
 (let (($x537 (= (mod y_year 4) 0)))
 (let (($x887 (ite (or (and $x537 (and (distinct (mod y_year 100) 0) true)) $x695) $x607 $x852)))
 (let (($x691 (= y_month 2)))
 (ite $x691 $x887 true))))))))
(assert
 (let (($x215 (<= y_day 30)))
 (let (($x908 (or (= y_month 4) (= y_month 6) (= y_month 9) (= y_month 11))))
 (ite $x908 $x215 true))))
(assert
 (let (($x884 (= x_day 29)))
 (let (($x831 (= x_month 2)))
 (let (($x372 (= x_year 2020)))
 (and $x372 $x831 $x884)))))
(assert
 (let ((?x761 (+ (mod (- (+ x_month (+ (* 1 12) 0)) 1) 12) 1)))
 (let ((?x731 (ite (or (= ?x761 4) (= ?x761 6) (= ?x761 9) (= ?x761 11)) 30 31)))
 (let ((?x741 (+ 0 (div (- (+ x_month (+ (* 1 12) 0)) 1) 12))))
 (let ((?x740 (+ x_year ?x741)))
 (let (($x970 (or (and (= (mod ?x740 4) 0) (and (distinct (mod ?x740 100) 0) true)) (= (mod ?x740 400) 0))))
 (let ((?x484 (ite (= ?x761 2) (ite $x970 29 28) ?x731)))
 (let ((?x801 (ite (< x_day 1) 1 (ite (> x_day ?x484) ?x484 x_day))))
 (let ((?x748 (ite (< ?x801 1) 1 (ite (> ?x801 ?x484) ?x484 ?x801))))
 (let ((?x625 (ite (= 2 ?x761) (ite $x970 31 31) (ite (= 1 ?x761) (ite $x970 0 0) 0))))
 (let ((?x661 (ite (= 4 ?x761) (ite $x970 91 90) (ite (= 3 ?x761) (ite $x970 60 59) ?x625))))
 (let ((?x634 (ite (= 6 ?x761) (ite $x970 152 151) (ite (= 5 ?x761) (ite $x970 121 120) ?x661))))
 (let ((?x664 (ite (= 8 ?x761) (ite $x970 213 212) (ite (= 7 ?x761) (ite $x970 182 181) ?x634))))
 (let ((?x324 (ite (= 10 ?x761) (ite $x970 274 273) (ite (= 9 ?x761) (ite $x970 244 243) ?x664))))
 (let ((?x424 (ite (= 12 ?x761) (ite $x970 335 334) (ite (= 11 ?x761) (ite $x970 305 304) ?x324))))
 (let ((?x971 (- (+ (* 365 (- ?x740 1)) (div (- ?x740 1) 4)) (div (- ?x740 1) 100))))
 (let ((?x572 (- (+ (+ (+ ?x971 (div (- ?x740 1) 400)) ?x424) (- ?x748 1)) 730179)))
 (let ((?x909 (+ (+ ?x572 0) 730179)))
 (let ((?x512 (mod ?x909 146097)))
 (let ((?x543 (div ?x512 36524)))
 (let ((?x507 (ite (<= 4 ?x543) 3 ?x543)))
 (let ((?x518 (- ?x512 (* ?x507 36524))))
 (let ((?x419 (mod ?x518 1461)))
 (let ((?x655 (div ?x419 365)))
 (let ((?x675 (ite (<= 4 ?x655) 3 ?x655)))
 (let ((?x699 (+ (+ (* (div ?x909 146097) 400) (* ?x507 100)) (* (div ?x518 1461) 4))))
 (let ((?x582 (+ (+ ?x699 ?x675) 1)))
 (let (($x722 (or (and (= (mod ?x582 4) 0) (and (distinct (mod ?x582 100) 0) true)) (= (mod ?x582 400) 0))))
 (let ((?x500 (- ?x419 (* ?x675 365))))
 (let ((?x668 (ite $x722 31 31)))
 (let (($x260 (>= ?x500 ?x668)))
 (let ((?x929 (ite $x260 (+ (- ?x500 ?x668) 1) (+ (- ?x500 (ite $x722 0 0)) 1))))
 (let ((?x680 (ite $x722 60 59)))
 (let (($x904 (>= ?x500 ?x680)))
 (let ((?x291 (ite $x722 91 90)))
 (let (($x697 (>= ?x500 ?x291)))
 (let ((?x414 (ite $x697 (+ (- ?x500 ?x291) 1) (ite $x904 (+ (- ?x500 ?x680) 1) ?x929))))
 (let ((?x429 (ite $x722 121 120)))
 (let (($x514 (>= ?x500 ?x429)))
 (let ((?x423 (ite $x722 152 151)))
 (let (($x296 (>= ?x500 ?x423)))
 (let ((?x297 (ite $x296 (+ (- ?x500 ?x423) 1) (ite $x514 (+ (- ?x500 ?x429) 1) ?x414))))
 (let ((?x745 (ite $x722 182 181)))
 (let (($x517 (>= ?x500 ?x745)))
 (let ((?x853 (ite $x722 213 212)))
 (let (($x251 (>= ?x500 ?x853)))
 (let ((?x305 (ite $x251 (+ (- ?x500 ?x853) 1) (ite $x517 (+ (- ?x500 ?x745) 1) ?x297))))
 (let ((?x604 (ite $x722 244 243)))
 (let (($x872 (>= ?x500 ?x604)))
 (let ((?x586 (ite $x722 274 273)))
 (let (($x957 (>= ?x500 ?x586)))
 (let ((?x255 (ite $x957 (+ (- ?x500 ?x586) 1) (ite $x872 (+ (- ?x500 ?x604) 1) ?x305))))
 (let ((?x886 (ite $x722 305 304)))
 (let (($x851 (>= ?x500 ?x886)))
 (let ((?x903 (ite $x722 335 334)))
 (let (($x345 (>= ?x500 ?x903)))
 (let ((?x204 (ite $x345 (+ (- ?x500 ?x903) 1) (ite $x851 (+ (- ?x500 ?x886) 1) ?x255))))
 (let (($x917 (= 0 0)))
 (let ((?x927 (ite $x514 5 (ite $x697 4 (ite $x904 3 (ite $x260 2 1))))))
 (let ((?x855 (ite $x872 9 (ite $x251 8 (ite $x517 7 (ite $x296 6 ?x927))))))
 (let (($x333 (= y_month (ite $x917 ?x761 (ite $x345 12 (ite $x851 11 (ite $x957 10 ?x855)))))))
 (and (= y_year (ite $x917 ?x740 ?x582)) $x333 (= y_day (ite $x917 ?x748 ?x204))))))))))))))))))))))))))))))))))))))))))))))))))))))))))))))))
(assert
 (not (and (= y_year 2021) (= y_month 2) (= y_day 28))))
(check-sat)
